50
    1   500   500
    2   418   418
    3   776   776
    4   651   651
    5   526   526
    6   668   668
    7    79    79
    8   744   744
    9   864   864
   10   646   646
   11   518   518
   12   165   165
   13   801   801
   14   966   966
   15   680   680
   16   952   952
   17   193   193
   18   347   347
   19   766   766
   20   303   303
   21   272   272
   22   771   771
   23   847   847
   24   799   799
   25   160   160
   26   759   759
   27   632   632
   28   870   870
   29   633   633
   30   931   931
   31   969   969
   32   944   944
   33   393   393
   34   682   682
   35   212   212
   36   174   174
   37   701   701
   38   223   223
   39   474   474
   40   558   558
   41   857   857
   42   350   350
   43   420   420
   44    11    11
   45   496   496
   46   592   592
   47   475   475
   48   788   788
   49     1     1
   50   501   501
9352
